5189
1500000
999103
999103
999103
999103
999103
999103
999103
997607
997607
997607
997607
997607
997607
997607
997607
997607
997607
997607
997607
997607
997607
997607
997607
997607
997607
997607
994650
994650
994650
994650
994650
994650
994650
994650
994650
994650
994650
991761
991761
991761
991761
991761
991761
991761
991761
991761
991761
991761
991761
991761
989212
989212
989212
989212
989212
989212
989212
989212
989212
989212
989212
989212
989212
989212
989212
989212
989212
988663
988663
988663
988663
985790
985790
985125
985125
985125
985117
985117
985117
985117
985117
985117
985117
985117
985117
985117
985117
985117
985117
985117
985117
985117
984219
984219
984219
984219
984219
984219
984219
984219
984219
984219
984219
984074
984074
984074
984074
984074
984074
984074
984074
984074
984074
984074
984074
984074
984074
984074
984074
984074
984074
984074
983450
983450
983450
983450
983450
980788
980788
980788
980788
980788
980788
980788
980788
980788
980788
980788
980788
980788
980788
980788
980788
980788
980788
980788
980788
980678
980678
980678
980678
980678
980678
980678
980678
980678
980678
980678
980678
980678
980678
980678
980678
980465
980465
980465
980465
979832
979832
976771
976771
976771
976771
976771
976771
976771
976771
976771
976771
976771
976771
973695
973695
973695
972744
972744
972744
972744
972744
972744
972744
972744
972744
972744
972744
972744
972744
972744
972744
972744
972744
972744
972744
972744
970570
970570
970570
970570
970570
970570
970570
970570
968458
968458
967951
967951
967951
967951
967951
967951
967951
967951
967951
967951
967951
967951
967951
967951
967951
962267
962267
962267
960504
960504
960504
960504
959489
959489
959489
959489
959489
959489
959489
959489
959489
959489
959489
959489
959489
959489
959489
958158
958158
958158
958158
958158
958158
958158
958158
958158
958158
958158
958158
958158
958158
958158
958158
958158
958158
958158
956285
956285
956285
956285
956285
956285
956285
956285
956285
956285
956285
956285
956285
956285
953291
953291
953291
953291
953291
953291
953291
953291
953291
953291
953291
953291
953291
953291
953291
953291
953291
950512
950512
950512
950512
950512
950512
950512
950512
950512
950512
950512
950512
950512
950512
950512
950512
950512
950512
950512
950145
950145
950145
950145
948683
948683
948683
948683
948683
948683
948683
948683
948683
948683
948683
948683
948683
948683
939334
939334
939334
939334
939334
939334
939334
939334
939334
939334
939334
939334
939334
939334
939334
938486
938486
938486
938486
938486
937822
937822
937822
937822
937822
937822
937822
937822
937822
937822
937822
937822
937822
937822
937822
937822
937356
937356
937356
937356
937356
937356
937356
937356
937356
937356
934777
934777
934777
934777
934777
934777
934777
934777
934777
934547
934547
934547
934547
934547
934547
934547
934547
934547
934547
934547
934547
934547
934547
934547
934547
934547
934547
932692
932692
932692
932692
932692
932692
932684
932684
932684
932684
932684
932684
932684
932684
932684
932684
932684
932684
932684
932684
932684
932684
932684
932684
932684
931817
931817
931817
931817
931817
931817
931694
931694
931694
931694
931694
924907
924907
924907
924907
924907
924907
924907
924907
924907
924907
924907
924907
924907
924907
924907
924907
924764
924764
924764
924764
924764
924764
924764
924764
924764
924764
924764
924764
924764
924764
924764
924764
924764
924764
924764
924764
924291
924291
924291
924291
924291
922017
922017
922017
922017
922017
922017
922017
922017
922017
922017
922017
922017
922017
922017
920342
920342
920342
920342
920342
920308
920308
920308
920308
920308
920308
920308
920308
920308
920308
920308
920308
920188
920188
920188
919939
919939
919939
919939
919939
919939
919939
919939
919939
915447
915447
915447
915447
915447
915447
915447
915447
915447
915447
915447
915447
915447
915447
915447
915447
915447
915447
915447
914989
914989
914989
914989
914989
914989
914989
914989
914989
914989
914989
914989
912892
912892
912892
912892
912892
912892
912892
912892
912892
911240
911240
911240
911240
911240
911240
911240
911240
911240
911240
911240
911240
911240
911240
911240
911240
911240
911240
908937
908937
908937
908937
908937
908937
908937
908937
908937
908937
908937
908937
908937
908937
908937
908937
908937
908302
908302
908302
908302
908302
908302
908302
908302
908302
908302
908302
908302
903732
903732
903732
903732
903732
903732
903732
903732
903732
903732
903732
903732
903732
903732
903732
903732
903732
903732
903732
903732
895683
895683
895683
895683
895683
895683
895683
895683
895683
895683
895683
895683
895683
895683
895683
895402
895402
895402
895402
895402
895402
895402
895402
895402
895402
895402
895402
888906
888906
888906
888906
888906
888906
888906
888906
888906
888906
888906
888906
888906
888906
888906
888906
888906
888906
888906
888906
883518
883518
883518
883518
883518
883518
883518
883518
883518
882804
882804
882804
882804
882804
882804
882804
882804
882804
882804
882804
882804
882804
880741
880741
880741
880741
880141
880141
880141
880141
880141
880141
880141
880141
880117
880117
880117
880117
880117
880117
880117
880117
880117
880117
880117
880117
880117
880117
880117
880117
880117
880117
880117
880117
876676
876676
876676
876676
876676
876676
876676
876676
876676
876676
876676
876676
876676
876676
876676
876676
876676
876676
876179
876179
876179
876179
876179
876179
876179
876179
876179
876179
876179
876179
876179
876179
876179
876179
876179
876179
876179
875729
875729
875729
875729
875729
875729
875729
875729
875729
875729
875729
875729
875729
875729
875729
875729
875729
875729
875729
875099
875099
875099
875099
875099
875099
875099
875099
875099
875099
875099
875099
875099
875099
875099
875099
875099
875099
873313
871980
871980
871977
871977
871977
871977
871977
871977
871977
871573
871573
871573
871573
871573
871573
869495
869495
869495
869495
869495
869495
869495
869495
867394
867394
867394
867394
867394
867394
867394
867394
867394
867394
867394
867394
867394
867394
867394
867394
867394
867021
867021
867021
867021
867021
867021
867021
867021
867021
867021
867021
867021
867021
867021
867021
867021
867021
866204
866204
866204
866204
864863
864863
864863
864863
864863
864863
864863
864863
864863
864863
864863
864863
864863
864863
858495
858495
858495
858495
858458
858406
854738
854738
854738
854738
854738
853980
853980
851390
851390
851390
851390
851390
851390
851390
851390
851390
851390
851390
851390
851390
851390
851390
851367
851367
851367
851367
851367
851367
851367
851367
851367
851367
851367
851367
851367
851367
850350
850350
848839
848839
848839
848839
848839
848839
848839
848839
847813
847813
847813
847813
847813
844678
844678
844678
844678
844678
844678
844678
844678
844678
844678
844678
844678
844678
844678
843429
843429
843429
843429
843429
843429
843429
843429
843321
843321
843321
843321
843321
843321
843321
843321
843321
843321
842689
842689
842689
842689
842689
842689
842689
842689
842689
842076
842076
842076
842076
842076
840401
840401
840401
840401
840401
840401
840401
840401
840401
840401
840401
840401
840401
840401
835819
835819
835819
835819
835819
835819
835819
835819
835819
835819
835819
835819
835819
835819
835819
835549
835549
835549
835549
835549
835549
835549
835549
835549
835549
835549
835549
835549
835549
835549
835549
835549
835549
835549
833716
833716
833716
833716
833716
833716
833716
833521
833521
833521
833521
833521
830357
830357
829096
823106
823106
823106
823106
823106
823106
823106
823106
823106
823106
823106
823106
823106
823106
823106
823106
822494
822494
819370
819370
819370
819370
819370
819370
819370
819370
819370
819370
819370
819370
819370
819370
819048
819048
819048
819048
819048
815835
815835
815835
815835
815835
815835
815835
815835
815835
815835
810209
810209
810209
810209
810209
810209
810209
810209
810209
810209
810209
810209
810209
810209
810209
810209
810209
810209
810209
810209
806600
806600
806600
806600
806600
806127
806127
806127
806127
806127
806127
806127
806127
806127
806127
806127
806127
806127
806127
805254
805254
805254
805254
805254
805254
805254
805254
805254
805254
805254
805254
805254
805254
805254
805254
805254
805254
805254
805254
804159
804159
804159
804159
804159
804159
804159
804159
803548
803548
803548
803548
797160
797160
797024
797024
797024
797024
797024
797024
797024
791851
791851
791851
791851
791851
791851
791851
791851
791851
791851
791851
791851
791851
791851
791851
791851
791851
791851
791851
791851
791263
791263
791263
791263
791064
791064
791064
791064
791064
791064
791064
791064
791064
791064
791064
791064
791064
791064
791064
791064
791064
789480
789480
789480
789480
789480
789480
789480
789480
789480
789480
789480
789480
789480
789480
789480
789480
789480
789480
789480
789480
788962
788962
788962
788962
788962
788962
788962
787173
787173
787173
785912
785912
785912
785912
785553
785553
785416
785416
785416
785416
785416
785416
785416
785416
785416
785416
785416
785416
785416
785416
785001
785001
785001
785001
785001
785001
785001
785001
785001
781534
781534
781534
781534
781534
781534
781534
777835
777835
777835
777835
777835
777835
776703
776703
776703
776703
776703
776703
776703
776703
776703
776703
776703
776703
776703
776703
776703
776703
776703
774789
774789
774789
774789
774789
774789
774789
774789
774789
774789
774789
774789
773592
773592
773592
773477
773477
773477
773477
773477
773477
773477
773477
773477
773477
773477
773477
773477
773477
773477
772631
772631
772631
772631
772631
772631
772631
772631
772631
772631
772631
772631
772631
772631
772364
772364
772364
772364
772364
772364
772364
772364
772364
772364
772364
772364
772364
772364
772364
772364
770882
770882
770882
770882
770882
770882
770780
770780
770780
770780
770780
770780
770780
770780
770780
770780
770780
770780
770780
770780
770780
770780
770780
770780
770780
770780
770488
770488
770488
770488
770488
770488
770488
770488
770488
770488
770488
770488
768988
768988
768988
768988
768988
768988
768988
768988
768988
768988
768988
768875
768875
768875
768875
768875
768875
768875
768875
768875
768335
768335
768335
768148
768148
768148
768148
768001
768001
768001
766398
766398
766398
766398
766398
766398
766398
766398
766398
766398
766398
766398
766398
766398
766398
766398
766398
765389
765389
765389
765228
765228
765228
765228
765228
765228
765228
765228
765228
765228
765228
765228
765228
765228
765228
765228
765228
765228
765228
764022
764022
764022
764022
764022
764022
764022
764022
764022
764022
761864
761864
761864
761864
761864
761864
761864
761864
761864
761672
760728
760728
760728
760728
760728
760728
760728
760728
760728
760728
760728
760728
760728
760728
760728
758628
758628
756007
756007
756007
756007
756007
756007
756007
756007
756007
756007
756007
756007
756007
756007
755779
755779
755779
755779
755779
755779
753032
753032
753032
753032
751229
751229
751229
751229
751229
751229
751229
751070
751070
751070
751070
751070
751070
751070
751070
751070
751070
751070
751070
751070
751070
751070
751070
751070
751070
749143
749143
749143
749143
749143
749143
749143
749143
749143
749143
748053
748053
748053
748053
748053
748053
748053
748053
748053
748053
748053
748053
748053
748053
748053
748053
748053
748053
747532
747532
747532
747532
747526
747526
747526
747526
747526
747526
747526
747526
747526
747526
747526
747526
747526
747526
747526
747526
747526
747526
747146
747146
747146
747146
747146
747146
747146
747146
747146
747146
747146
747146
747141
747141
742963
742963
742963
742963
742963
742963
742963
742963
742963
742963
742963
742963
740799
740799
740799
740799
740799
740799
740799
740799
740799
740799
740799
740799
740799
740739
740739
740739
740739
740739
740739
740739
740739
740739
740739
740739
740739
740739
740739
739460
739460
739460
739460
739460
739460
739460
739460
739460
739460
739460
739460
739460
739311
739311
739311
739311
739311
739311
739311
739311
739311
739311
738116
738116
738116
738116
738116
738116
738116
736050
736050
736050
736050
736050
736050
736050
736050
736050
736050
736050
736050
736050
736050
736050
736050
736050
734470
734470
734470
734470
734149
734149
734149
734149
734149
734149
734149
734149
734149
734149
734149
734149
734149
734149
734149
734149
734149
734149
734149
734149
733572
733572
733572
733572
733572
733572
733572
733572
733572
733572
731665
731665
731665
731665
731665
731665
731665
731665
731665
731665
731665
731665
731665
731665
731665
731665
731665
731665
724854
724854
724854
724854
724854
724854
724854
724854
724854
724854
724854
724854
724854
724854
724854
724854
724854
724854
724854
724054
724054
724054
724054
723446
723446
723446
723446
723446
723446
723446
723446
723446
723446
723446
723446
723446
723446
723446
723157
723157
723157
723157
723157
723157
723157
723157
723157
723157
723157
723157
723157
722785
722785
722785
722785
722785
722170
722170
722170
722170
722170
722170
722170
722170
722170
722170
722170
719565
719565
719565
719565
719565
719565
719565
719565
715837
715837
715837
715837
715837
715837
715837
715837
715837
715837
715837
715837
715837
715837
715837
707909
707909
707550
707550
707550
707550
707550
707550
707550
707550
707550
707550
707550
707550
707246
707246
707246
707246
707246
707246
706337
706337
706337
706337
706337
704647
704647
704647
704647
704647
704647
704647
704647
704215
704215
704215
704215
704215
704215
704215
704215
704215
704215
704215
704215
704215
704215
704215
704215
704215
704215
704215
704215
703277
703277
703277
703277
703277
703277
703277
703277
703277
703277
703277
703277
703277
703277
703277
703277
703277
703277
703277
701173
701173
701173
701173
701173
701173
701173
701173
701173
701173
701173
701173
695919
695181
695181
695181
695181
695181
695042
695042
695042
694237
694237
694237
694237
694237
694237
694237
694237
694237
694237
694237
694237
694237
694237
691276
691143
691143
690547
690547
690547
690547
690547
690547
690547
688869
688869
688869
688869
688869
688869
688869
688869
688869
688869
688869
688869
688869
688869
688869
688869
688869
688144
688144
688144
688144
688144
686208
686208
686208
686208
686208
686208
686208
686208
686208
685566
685566
685566
685566
685566
685566
685566
685566
685566
685566
685566
685566
685566
685566
685566
685566
685566
685566
678920
678920
678920
678920
678920
678920
678920
678920
678920
678920
678920
678920
678920
678920
678920
678920
678920
678920
675300
675300
675300
675300
675300
675300
675300
675300
675300
675300
675300
675300
675300
675300
675300
671949
671949
671949
671949
671044
671044
671044
671044
671044
671044
671044
671044
671044
671044
671044
671044
666900
666900
666900
666900
666900
666900
666900
666900
666900
666900
666900
663218
663218
663218
663218
663218
663218
663218
663218
663218
663218
663218
663218
663218
663218
663218
663218
663218
663168
663168
663168
663168
663168
663168
663168
663168
663168
663168
663168
663168
663168
663168
663168
661016
661016
661016
661016
661016
661016
661016
661016
661016
661016
661016
659197
659197
659197
659197
659197
659197
659197
659197
656170
656170
656170
656170
656170
656170
656170
656170
656098
656098
656098
656098
656098
656098
656098
656098
656098
656098
656098
656098
656098
656098
656098
650961
650961
650961
650961
650961
650961
650961
650961
650961
650961
650961
650961
650961
650961
650961
650961
650961
650961
650961
648679
648679
647279
647279
647279
647279
647279
647279
647279
647279
647279
647279
647279
647279
647279
647279
647279
647279
643074
643074
643074
643074
643074
643074
643074
643074
643074
643074
643074
643074
643074
643074
641388
641388
641388
641388
641388
641388
641388
641388
641388
641388
641388
641388
641388
641388
641388
641388
641299
641299
641299
641299
641299
641299
641299
641299
641299
641299
641009
641009
641009
641009
641009
641009
641009
641009
641009
641009
641009
641009
641009
641009
641009
641009
641009
640088
640088
640088
640088
640088
640088
640088
640088
640088
640088
640088
640088
640088
640088
638105
638105
638105
638105
637941
637941
637941
637941
637941
637941
637941
637941
637941
637941
637941
637941
637941
637941
637941
637941
637941
637941
637941
637941
637772
637772
637772
637772
637772
637772
637772
637772
637772
637772
637772
637772
637772
637772
637772
637772
637772
637772
637308
637308
637308
637308
637308
637308
637308
637308
637308
635299
635299
635299
635299
635299
635299
635299
635299
635299
635299
634501
634501
634501
634501
634501
634501
634501
634501
634501
634501
634501
634501
634169
634169
634169
634169
634169
634169
634169
634169
634169
632130
632130
632130
632130
632130
632130
632130
632130
632130
632130
632130
632130
632085
632085
632085
632085
631856
631856
631856
630852
630852
630852
630852
628079
628079
627838
627838
627838
627838
627838
627838
627838
624837
624837
624154
624154
624154
624154
624154
624154
624154
624154
624154
624154
624154
624154
624154
624154
624154
624154
624154
624154
624154
624154
622371
622371
617943
617943
617943
617943
617943
617943
617938
617938
617938
617938
617938
617938
617938
617938
617938
617938
617938
617938
614911
614911
614911
614911
614911
614911
614911
614911
614911
614911
614911
614911
614911
614911
614911
614911
614911
614911
614911
614911
614252
614252
613057
613057
613057
613057
613057
613057
613057
613057
613057
613057
613057
613057
613057
613057
613057
613057
613057
613057
612506
609444
609444
609444
609444
609444
609444
609444
609444
609444
609444
609444
609444
609444
609205
609205
609205
609205
608810
608810
608810
608810
608810
608810
608353
608353
608353
608353
608353
608353
608353
608353
604781
604781
604781
604781
604781
604781
604781
604781
604781
604026
604026
604026
604026
604026
604026
604026
604026
604026
604026
604026
604026
604026
604026
604026
604026
604026
604026
604026
604026
603311
603311
603311
603311
603311
603311
603311
603311
603311
603311
603311
603311
603311
603171
603171
603171
603171
603171
603171
603171
603171
603171
600079
600079
600079
600079
600079
600079
600079
600079
600079
595235
595235
595235
595235
595235
595235
595235
595235
595235
595235
595235
595235
595235
595235
595235
591601
591601
591601
591601
591601
591601
591601
591601
591601
591601
591601
591601
591601
591601
589354
589354
589354
589354
589354
589354
589354
589354
589354
589354
589354
589354
589354
589354
589354
589354
589354
589354
589354
589019
589019
588193
588193
588193
588193
588193
588193
588193
588193
588193
588193
588193
588193
588193
588193
588193
588193
588193
588193
588193
587052
587052
587052
587052
587052
587052
587052
587052
587052
587052
587052
587052
587052
587052
586356
586356
586356
586356
586356
586356
586356
586356
586356
586356
586356
586356
586356
586356
586356
586356
586356
585061
585061
585061
585061
585061
585061
585061
585061
585061
585061
585061
585061
585061
585061
585061
585061
585061
585061
585061
584206
584206
584206
583561
583561
583561
583561
583561
583561
583561
583561
583561
583561
583561
583561
583561
583561
583561
583480
583480
583480
583480
583480
583480
583480
583480
583480
583480
582534
582534
582534
582534
582534
582534
582534
582534
582534
582534
582534
578450
578450
578450
578450
578450
578450
576643
576643
576643
576643
576643
576643
576643
576643
576643
576584
576584
576584
576584
576584
576584
576584
576584
576584
576584
576584
576584
576584
576584
576584
576231
576231
576231
576231
576231
576231
576231
576231
576231
576231
576231
576231
576231
576231
576231
576231
576231
573790
573790
573790
573790
573790
570224
570224
570224
570224
570224
567731
567731
567731
567731
567731
567731
567731
567731
567731
567578
567578
567578
567578
567578
567578
567578
567578
567578
567578
567578
567578
567578
563052
563052
563052
563052
563052
563052
563052
563052
563052
563052
563052
563052
563052
562933
562933
562933
562933
562933
562933
562933
562933
562933
562933
562933
562933
562933
562019
562019
562019
562019
562019
562019
562019
562019
562019
562019
562019
562019
562019
562019
562019
562019
562019
562019
561631
561631
561631
561631
561631
561631
561631
561631
561631
561631
561631
561631
561631
561554
561554
561554
561554
561554
561554
561554
561554
561554
561554
561554
561554
561554
561554
560748
560748
560748
560748
560748
560748
560253
560253
560253
560253
560253
560253
560253
560253
560253
560253
560253
558915
558915
558915
558915
558915
558915
558915
558915
558915
558915
558915
558915
558915
558915
558915
558915
558915
558915
558115
558115
558115
558115
558115
558115
558115
558115
558115
558115
558115
558115
558115
558115
558115
558115
558115
558115
557854
557854
557854
557854
557854
557854
557854
557854
557854
557784
557784
557784
557784
557784
557784
557784
557784
557784
557784
557784
557784
557784
557784
557784
557784
557784
557784
555983
555983
555983
555983
555983
555983
555983
555983
554165
554165
554165
554165
554165
554165
554165
554165
554165
554165
549629
549629
549629
549629
549629
549629
549629
549629
549629
549629
549629
549629
549629
543406
543406
543406
543406
543406
543406
543406
543406
543406
543406
543406
541791
541791
541791
541791
541791
541791
541791
538298
538298
537864
537864
537864
537864
537864
537864
537864
537864
537864
537864
537864
537864
537864
537864
537864
537864
537864
537864
533664
533664
533664
533664
533664
533664
533664
533664
533664
533664
533664
533664
533664
533664
533664
533664
533664
533664
532410
532410
532410
532410
532410
532410
532410
532410
532410
532410
532410
532410
532410
532410
532410
532410
532410
532410
531307
531307
531307
531307
531307
529237
529237
529237
529237
529237
528461
528461
528461
528461
528461
528461
528461
528461
528461
528461
528461
528461
528461
528461
528461
528461
528461
527587
527587
527587
527587
527587
527587
527587
527587
527587
527587
527587
527587
527587
527587
527587
527587
527587
523888
523888
523888
523888
523888
523888
523488
523488
523488
523488
523488
523260
523260
523260
523260
523260
523260
523260
523260
523260
523260
523260
523260
523260
523260
519211
519211
519211
519211
519211
519211
519211
519211
519211
519211
519211
519211
519211
518196
518196
518196
518196
518196
518196
518196
518196
518196
518196
518196
518196
518196
518196
518196
518196
518196
516777
516777
516777
516777
516777
516777
516777
516777
516777
516777
516777
516777
516777
516777
516777
516777
516777
516777
516777
516777
514517
514517
514517
514517
514517
514517
514517
514517
514517
514517
514517
514517
514412
514412
514412
514412
511821
511821
511600
511600
511600
511600
511600
511600
511531
511531
511531
511531
511531
511531
511531
510967
510967
510967
510967
510967
510967
510967
510905
510905
510905
510905
510905
510905
510905
510800
510800
510800
510800
510800
510800
507934
507934
507934
507934
507934
507934
507934
507934
506563
506563
506563
506563
506563
506563
506563
506563
500563
500563
500563
500563
500563
500563
500563
500563
500563
500563
500563
500563
500563
500563
500563
500563
497584
497584
497584
497584
497584
497584
497584
497584
497584
497584
497584
495714
495714
493794
493794
493794
493794
493794
493794
493794
493794
493794
493794
493794
493794
493794
493794
493794
493794
493794
492406
492406
491609
491609
491609
491609
491609
488313
488313
488313
488313
488313
488313
488313
488313
488313
488313
488313
488313
488313
487832
487832
487832
487832
487832
487832
487832
487832
487832
487832
487832
487832
487832
487832
487832
487832
487832
487832
487832
487583
487583
487583
487583
487583
487583
487583
487583
487583
487583
487583
487344
487344
487344
487344
487344
487328
487328
487328
487328
487328
487328
487328
487328
487328
487328
487328
487328
487328
487328
487328
487328
485384
485384
485384
485384
485384
485384
485384
485363
483215
483215
483215
483215
483215
482541
482541
482541
482541
482541
482541
482541
482541
482541
482541
482541
481667
481667
481667
481667
481667
481667
481667
481667
481667
481667
481667
481667
481667
481667
481667
481667
481667
481667
481667
479552
479552
479552
479552
479552
479552
479552
479552
479552
479552
476676
476676
476676
476676
476676
476676
476676
476676
476676
476676
476676
476676
476676
476676
476676
476676
476676
475985
475985
475985
475985
475985
475985
475985
475985
475985
475985
475985
475985
475985
475985
475985
475985
475985
472538
471254
471254
471254
471254
471254
471254
471254
471254
471254
471254
471254
471254
471254
471254
471254
471254
469280
468685
468685
468685
468685
468685
468572
468572
468572
468572
468572
468572
468572
468572
468572
468572
468536
468536
468536
468536
468536
468536
468501
468501
468501
468501
468501
468501
462348
462348
462348
462348
462348
462348
462348
462348
462348
462348
462348
462348
462348
462348
462348
462348
462348
462348
462216
462216
461850
461850
461850
461850
461850
461850
461850
460282
460282
460282
460282
460282
460282
460282
459751
459751
459751
459751
459751
459751
459751
459751
459751
459751
459751
459751
459751
459751
459751
459751
459751
457707
457707
457707
457707
457707
457707
457707
457707
457707
457707
457707
457707
457707
457707
457707
457707
457707
457707
456781
456781
456781
456781
456781
456781
456781
456781
456781
456781
456781
456781
456781
456781
456781
456781
453574
453574
453574
453574
453574
453574
453574
453574
453574
453574
453574
453574
453574
453574
453574
453574
453574
451538
451538
451538
451538
451538
451538
451538
451538
451538
449782
449782
449782
449782
449782
449782
449782
449782
449782
449782
449782
449782
449782
449782
449782
449782
449713
449713
449713
449713
449713
449713
449713
449713
449713
449713
449713
449292
449292
449292
449292
449292
449292
449292
449292
449292
449292
449292
449292
449292
449292
449292
449292
449292
449292
449292
445166
445166
445166
445166
445166
445166
444706
444706
444706
444706
444706
444706
444706
444706
444706
444706
444706
444706
444706
444706
444706
444706
444706
444706
443007
443007
443007
443007
443007
443007
443007
443007
443007
443007
442076
442076
442076
442076
442076
442076
442076
442076
442076
442076
442076
441769
441769
441769
441769
441744
441744
441744
441744
441744
441744
441744
441744
441744
441744
441744
440378
440378
440378
440378
440378
440378
440378
440378
440378
440378
440378
440141
440141
440141
440141
440141
440141
440141
440141
440141
440141
440141
440141
440141
440141
440141
439924
439924
439924
439924
439924
439924
439924
439924
439657
439657
439657
439657
439657
439657
439657
439657
439657
439657
439657
439657
439657
439657
439657
439657
439657
439000
439000
439000
439000
439000
439000
439000
435404
435404
435404
435404
435404
435404
435404
435404
435404
435404
435404
435404
435404
435404
435404
434709
434709
434709
434709
434709
434709
434709
434709
434709
434709
434709
434709
434709
434709
434709
433287
433287
433287
428422
428422
428422
428422
428422
428422
428422
427663
427663
427663
427663
427663
427663
427663
427663
427663
425508
425508
425508
425508
425508
425508
425508
425508
425508
425508
425508
424687
424687
424687
424687
424687
424687
424687
424687
424687
424687
424687
424687
424687
424687
424687
424687
424687
424687
424687
424687
420721
418785
418785
418785
418785
418785
418785
418785
418785
418785
418785
418785
418785
418785
418785
418785
418279
418279
418279
417983
417983
417983
417983
417983
417983
417983
416741
416741
416741
416741
416741
416741
416741
416741
416741
415663
415663
415663
415663
415663
415663
415663
415663
415663
406455
406455
406455
404584
404584
404584
404584
404584
403402
403402
403402
403402
403402
403402
403402
403402
403402
403402
403402
403402
403402
403402
403402
403402
403184
403184
399868
399868
399868
399868
399868
399868
399868
399868
399868
399868
399868
399868
399868
399868
399868
399868
399868
399868
399868
399868
399550
399550
399550
399550
399550
399550
399550
399550
399550
399550
399550
399550
399550
399550
399550
399550
399550
399374
399374
399374
397694
397694
397694
397694
397694
397694
396615
396615
396615
396615
396615
396615
396615
396615
396615
396615
396615
396615
396615
396415
396415
396415
396415
396415
396415
396415
396415
396415
396415
396415
395019
395019
395019
395019
395019
395019
395019
395019
395019
395019
395019
395019
395019
395019
394532
394532
394532
394532
394532
394532
394532
394532
394532
394532
394532
394532
391574
391574
391574
391574
389950
389950
389950
389950
389950
389950
389950
389950
389950
389950
389950
389950
389950
389243
389243
389243
389243
389243
389243
389243
389243
389243
389243
389243
389243
389243
389243
389243
389243
382917
382917
382917
382917
382917
382917
382917
382917
382917
382917
382917
382917
382917
382917
382917
382917
379982
379982
379982
379982
379240
379240
379240
379240
378973
378973
378973
378195
378195
378195
378195
378195
378195
378195
371942
371942
371942
371942
371942
371942
371942
371942
371942
371942
371942
371942
371669
371669
371669
371669
371669
371669
371669
371669
371669
369553
369553
369553
369553
369553
369553
369553
369553
369553
369553
369553
369553
369553
369553
368358
368358
367598
367598
367598
367598
367598
367598
367598
367598
367598
367598
367598
365459
365459
365459
365459
363651
363651
363651
363651
363651
363651
363651
363651
363651
363651
363651
363651
361199
361199
361199
361199
360716
360716
360716
360716
360716
360716
360716
360716
360716
359694
359694
359694
359694
359694
358633
358633
357081
357081
357081
356924
356924
356924
356924
356924
356924
356924
356924
356924
356924
356924
356924
356924
356924
356924
356924
356128
356128
356128
356128
356128
356128
356128
356128
351045
351045
351045
351045
351045
351045
351045
351045
351045
351045
351045
351045
351045
351045
351045
351045
351045
351045
351045
351045
350917
350917
350917
350917
350917
350917
350917
350917
350917
350917
350917
350077
350077
350077
350077
350077
350077
348611
348611
348611
348611
348611
348611
348611
348611
348611
348611
348611
348611
348611
347497
347497
347497
347497
347497
347199
347199
347199
347199
347199
347199
347199
347199
347199
347199
347199
347199
347199
347199
347199
347199
347199
347199
347199
347199
344778
344778
344778
344778
344778
344778
344778
344778
344778
344778
344778
344778
344778
344778
344778
344778
344778
344778
344778
344778
340685
340685
340685
340685
340685
340685
340685
340685
340685
340685
340685
340685
340685
339118
339118
339118
338749
338749
338749
338749
338749
338749
334976
334976
334976
334976
334976
334976
334976
334976
334976
334976
334976
334976
334976
334976
334976
334976
334976
334976
334976
334976
334887
334887
334887
334887
334887
334887
334887
334887
334750
334750
334750
334750
334750
334750
334750
334750
334750
334750
334750
334750
334750
333824
333824
331583
331583
331583
331583
331583
331583
331583
331583
331583
331583
331583
331583
326118
326118
326118
326118
326118
326118
326118
326118
326118
324586
324586
324586
324586
324586
324586
324586
324586
324586
324586
324586
324586
324586
324586
324586
324586
324586
324586
324586
323231
323231
323231
323231
323231
323231
323231
322204
322204
322204
322204
322204
322204
321976
321976
321976
321976
321976
321976
316293
316293
316293
316293
316293
316293
316293
314386
314386
314386
314386
314386
314386
314386
314386
314386
314386
312662
312662
312662
312662
312662
312662
312662
312662
312662
312662
312662
312662
312358
312358
312358
312358
312358
312358
312358
312358
312358
312358
312358
312358
312358
305227
305227
305227
305227
305227
305227
305227
305227
305227
305227
305227
305227
305227
305227
305227
305227
305227
305227
304117
304117
304117
303145
303145
303145
303145
303145
303145
303145
303145
303145
303145
303145
303145
303145
303145
303145
303145
303145
303145
302956
302956
302956
302956
302956
302956
302956
302956
302956
302956
302956
302956
302956
302956
302956
302476
302476
302476
302476
302476
302476
302476
302476
302476
302476
302476
302476
302476
302476
302476
302013
302013
302013
302013
302013
299561
299561
299561
295185
295185
295185
295185
295185
295185
295185
295185
295185
295185
294435
294435
294435
294435
294435
294435
293361
293361
293361
293361
293361
293361
293361
293361
293361
293361
293361
293361
293361
293361
293361
293361
293361
290552
290552
290552
290552
290552
290552
290552
290552
290552
290552
290552
290552
290552
290552
290552
290552
290552
289733
289026
289026
289026
288541
288541
288541
288541
284958
284958
284396
284396
284396
283626
283626
283626
283626
283626
283626
283626
283626
283626
283626
283626
283626
283626
283471
283471
283471
283471
276275
276275
276275
272546
272546
271483
271483
271483
271483
271483
271483
271378
270291
270291
270291
270291
270291
270291
270291
270291
270291
270291
270291
270291
270291
270291
270291
270291
268094
268094
268094
268094
268094
268094
268094
268094
268094
268094
268094
268094
268094
268094
267816
267816
267816
267816
267816
267816
267816
267816
267816
267816
267816
267816
267816
267523
267521
267521
267521
267521
267521
267521
267521
267521
267521
267521
267521
267521
267521
267521
267521
267521
267521
267521
267521
267521
263150
262990
262990
262990
260784
260784
260784
260784
260784
260784
260784
260784
260784
259119
259119
259119
259119
259119
259119
259119
259119
259119
259119
259119
259119
259119
259083
259083
259083
259083
259083
259083
259083
259083
259083
259083
259083
259083
258631
258631
258631
258631
258631
258631
254967
254967
254967
254967
254967
254967
254967
254967
254967
254967
254967
254967
254967
254898
254898
254898
254898
254898
254898
254898
254898
254898
254898
254898
254898
254898
254898
254898
254898
254898
254898
254282
254282
254282
254282
254282
254282
254282
254282
254282
254282
254282
254282
254282
254282
254282
254282
254282
254282
254282
252960
252960
252960
252960
252960
252960
252960
252960
252960
252960
252960
252960
252960
252960
252746
252746
252746
250841
250841
250841
250841
250841
250841
250841
250841
250841
250841
250841
250841
250841
250841
250841
250841
250841
250841
249808
249808
249808
249808
249808
249808
249808
249808
249808
249808
249808
249808
249808
249808
249808
249808
249808
249808
245958
245958
245958
245958
245958
245958
245958
245958
245958
245958
245958
245689
245689
245689
245689
245689
245689
245689
245689
245689
245689
245689
245689
244466
244466
244466
241911
239962
239962
239962
239962
239962
239962
239193
239193
239193
239193
239193
239193
239193
239193
239193
239193
239193
239185
239185
239185
239185
239185
239185
239185
239185
239185
239185
239185
239185
237195
237195
237195
237195
237195
237195
237195
237195
237195
237195
237195
237195
237195
237195
237195
236928
236928
236928
236928
236928
236928
236928
236928
236928
236928
236928
236928
236928
236928
236928
235535
235535
235535
235535
235535
235535
235535
235535
235535
235535
235535
235535
235535
235535
235535
235535
235535
234701
234701
234701
234701
234701
234701
234701
232427
232427
232427
232427
232427
232427
232427
232427
232427
232427
232427
229891
229891
229891
229891
229891
229891
229891
229891
229891
229891
229891
229891
229891
227691
227691
227691
227691
227691
227691
227691
227691
227691
227691
227691
227691
227691
227691
227691
227691
227691
227691
227691
226855
226855
226855
225689
225689
225689
224080
224080
224080
224080
224080
224080
224080
224080
224080
224080
224080
223984
223984
223984
223984
223984
223984
223984
223984
223984
223984
223984
223984
223984
223931
223931
223931
223931
223931
223931
223931
223931
223931
223931
223931
223931
223931
223931
223931
223931
223471
223471
223471
223471
223471
223471
223471
223471
223471
223471
223471
223471
223471
223471
223471
223471
220374
220374
220374
220374
220374
220374
220374
220374
220374
220374
220374
219002
219002
219002
219002
219002
219002
219002
219002
219002
219002
217055
217055
217055
217055
214437
214437
214437
214437
214437
214437
214437
214437
214437
214437
214437
214437
214437
214437
214437
214437
214437
214437
214437
213215
213215
213215
213215
213215
211537
211537
211537
211537
211537
211537
211537
209854
209854
209854
209854
209854
209854
209854
209854
209854
209854
209854
206897
206897
206897
206897
206897
206897
206897
206897
206897
206897
206897
206897
206897
206897
206897
206897
206897
206550
206550
206550
206550
206550
206550
206550
206550
205953
205361
205361
205361
205361
205361
204751
204751
204751
204751
204751
204751
204751
204751
204751
204751
204751
204751
204751
204751
204751
204751
204751
204751
204751
203935
203935
203935
203935
203935
203935
203935
203935
203935
203935
203935
203935
203935
203935
203935
203935
202768
202768
202768
202768
202768
202768
202768
202768
202768
202768
202768
202768
202768
202768
202768
202768
202768
202768
202768
202238
